141
10000
1932
1651
3987
2782
1942
2777
3846
3008
392
4204
2459
3719
3652
3320
3569
4558
4777
453
3154
1445
2072
3306
347
3722
34
339
2709
2115
2955
561
4398
3471
2542
1711
713
3773
1246
3256
3044
1723
1650
3642
1279
1382
2269
1209
3264
2833
1489
4197
3790
1615
3164
1792
1281
4946
2537
633
1171
642
4704
770
2491
9
3342
459
152
3992
1167
120
466
300
206
1471
71
3135
505
1600
3097
1540
1749
100
2375
4830
998
4747
4975
3458
921
3270
102
4112
1825
1
372
4152
241
977
2512
2693
245
1430
3898
1252
2021
982
336
1057
2787
1152
608
1934
1754
1896
3470
4100
3277
1904
2887
537
2975
506
2930
3700
866
1685
1499
927
1156
2774
1220
1534
3445
4074
1374
1276
3058
1328
2824
1630
1236
